p cnf 22 26
1 7 0
-1 8 0
2 3 4 1 9 0
2 3 4 -1 10 0
2 3 -4 1 11 0
2 3 -4 -1 12 0
2 -3 4 1 8 0
2 -3 4 -1 13 0
2 -3 -4 1 14 0
2 -3 -4 -1 9 0
-2 3 4 1 9 0
-2 3 4 -1 15 0
-2 3 -4 1 21 0
-2 3 -4 -1 16 0
4 15 0
-4 9 0
5 2 3 22 0
5 2 -3 8 0
5 -2 3 18 0
-5 2 3 11 0
-5 2 -3 7 0
-5 -2 3 17 0
6 4 19 0
6 -4 16 0
-6 4 10 0
-6 -4 20 0
